NAME : BB30.1086301.tour
COMMENT : Cost = 0_1086301
COMMENT : Found by LKH [Keld Helsgaun] Sun Apr 23 15:14:35 2017
TYPE : TOUR
DIMENSION : 63
TOUR_SECTION
1
22
52
17
16
27
47
46
57
3
33
29
59
23
13
43
53
14
44
30
60
31
61
18
48
6
36
63
25
55
7
37
5
35
15
45
24
4
34
54
19
49
10
2
40
32
62
12
42
26
56
21
51
11
41
20
50
9
39
8
38
28
58
-1
EOF
